n = 15;
m = 6;

opiniones_iniciales = [4, 2, 1, 3, 3, 2];

valores_opiniones = [0.11, 0.32, 0.58, 0.78, 0.91, 0.99];

costos_extras = [6.21, 12.0, 3.45, 8.4, 2.11, 5.78];

costos_desplazamiento = [|
    0.0, 1.87, 3.25, 4.21, 3.45, 5.87
    | 1.215, 0.0, 2.125, 3.71, 4.11, 3.515
    | 3.015, 1.12, 0.0, 2.21, 4.315, 3.915
    | 2.51, 2.42, 1.31, 0.0, 3.72, 4.815
    | 4.52, 3.1, 2.115, 4.31, 0.0, 2.91
    | 5.91, 2.21, 3.015, 1.87, 3.515, 0.0 |];

ct = 50.0;

maxMovs = 12;
